c Sudoku solution
p cnf 729 0
133 0
189 0
229 0
243 0
265 0
281 0
349 0
392 0
432 0
468 0
496 0
511 0
534 0
546 0
575 0
688 0
528 0
694 0
759 0
787 0
483 0
373 0
582 0
816 0
821 0
331 0
885 0
195 0
922 0
986 0
766 0
384 0
367 0
991 0
741 0
772 0
557 0
563 0
669 0
599 0
419 0
161 0
862 0
964 0
874 0
979 0
839 0
847 0
297 0
315 0
326 0
238 0
276 0
178 0
156 0
358 0
636 0
937 0
735 0
948 0
955 0
853 0
898 0
793 0
724 0
913 0
718 0
617 0
623 0
425 0
444 0
451 0
477 0
671 0
127 0
142 0
254 0
114 0
212 0
645 0
652 0
